param n := 120;
param c := 450
param : V : p w :=
   0	 110	 100
   1	  32	  22
   2	  35	  25
   3	  61	  51
   4	 105	  95
   5	  68	  58
   6	 107	  97
   7	  40	  30
   8	  89	  79
   9	  33	  23
  10	  63	  53
  11	  90	  80
  12	  30	  20
  13	  75	  65
  14	  74	  64
  15	  31	  21
  16	  36	  26
  17	 110	 100
  18	  91	  81
  19	 108	  98
  20	  80	  70
  21	  95	  85
  22	 102	  92
  23	 107	  97
  24	  96	  86
  25	  81	  71
  26	 101	  91
  27	  39	  29
  28	  73	  63
  29	  44	  34
  30	  77	  67
  31	  33	  23
  32	  43	  33
  33	  99	  89
  34	 104	  94
  35	  57	  47
  36	 110	 100
  37	  47	  37
  38	  50	  40
  39	  68	  58
  40	  83	  73
  41	  49	  39
  42	  59	  49
  43	  89	  79
  44	  64	  54
  45	  67	  57
  46	 108	  98
  47	  79	  69
  48	  77	  67
  49	  59	  49
  50	  48	  38
  51	  44	  34
  52	 106	  96
  53	  37	  27
  54	 102	  92
  55	  92	  82
  56	  79	  69
  57	  55	  45
  58	  79	  69
  59	  30	  20
  60	  85	  75
  61	 107	  97
  62	  61	  51
  63	  80	  70
  64	  39	  29
  65	 101	  91
  66	 108	  98
  67	  87	  77
  68	  58	  48
  69	  55	  45
  70	  53	  43
  71	  71	  61
  72	  46	  36
  73	  92	  82
  74	  99	  89
  75	 104	  94
  76	  36	  26
  77	  45	  35
  78	  68	  58
  79	  68	  58
  80	  67	  57
  81	  56	  46
  82	  54	  44
  83	 101	  91
  84	  59	  49
  85	  62	  52
  86	  75	  65
  87	  52	  42
  88	  43	  33
  89	  70	  60
  90	  47	  37
  91	  67	  57
  92	 101	  91
  93	  62	  52
  94	 105	  95
  95	  94	  84
  96	  82	  72
  97	  85	  75
  98	  99	  89
  99	  91	  81
 100	  77	  67
 101	  84	  74
 102	  97	  87
 103	  70	  60
 104	  42	  32
 105	  86	  76
 106	  95	  85
 107	  69	  59
 108	  72	  62
 109	  49	  39
 110	  74	  64
 111	  62	  52
 112	  98	  88
 113	  55	  45
 114	  39	  29
 115	  98	  88
 116	  95	  85
 117	  64	  54
 118	  50	  40
 119	  67	  57
;

set E :=
   0	   6
   0	  48
   0	  57
   0	  58
   0	  61
   0	  62
   0	  76
   0	  82
   0	  84
   0	  89
   0	  90
   0	 116
   0	 119
   1	   4
   1	  15
   1	  28
   1	  37
   1	  71
   1	  76
   1	  81
   1	  87
   1	 118
   2	  16
   2	  32
   2	  43
   2	  59
   2	  64
   2	  68
   2	  71
   2	  91
   2	 105
   2	 108
   3	   8
   3	  11
   3	  16
   3	  24
   3	  44
   3	  64
   3	  76
   3	 110
   4	   5
   4	  19
   4	  26
   4	  36
   4	  42
   4	  43
   4	  52
   4	  55
   4	  57
   4	  61
   4	  67
   4	  68
   4	  71
   4	  73
   4	  77
   4	  80
   4	  97
   4	 103
   4	 110
   5	   9
   5	  17
   5	  21
   5	  71
   5	  73
   5	 100
   5	 106
   5	 113
   5	 118
   6	   7
   6	   8
   6	  11
   6	  31
   6	  32
   6	  38
   6	  43
   6	  90
   6	 103
   6	 104
   6	 110
   6	 113
   6	 114
   6	 119
   7	   8
   7	  11
   7	  15
   7	  16
   7	  58
   7	  73
   7	  79
   7	  96
   8	  30
   8	  34
   8	  35
   8	  43
   8	  60
   8	  62
   8	  70
   8	  85
   8	  94
   8	  96
   8	  98
   8	 102
   8	 111
   8	 114
   9	  14
   9	  16
   9	  23
   9	  34
   9	  43
   9	  59
   9	  76
   9	  77
   9	  99
   9	 102
   9	 107
   9	 113
  10	  13
  10	  25
  10	  33
  10	  38
  10	  46
  10	  54
  10	  59
  10	  65
  10	  70
  10	  78
  10	  82
  11	  19
  11	  21
  11	  24
  11	  37
  11	  66
  11	  75
  11	 107
  12	  21
  12	  22
  12	  23
  12	  31
  12	  34
  12	  60
  12	  61
  12	  74
  12	  76
  12	  90
  12	  95
  12	 115
  13	  22
  13	  23
  13	  28
  13	  41
  13	  55
  13	  68
  13	 100
  14	  17
  14	  21
  14	  37
  14	  52
  14	  65
  14	  73
  14	  93
  14	 107
  14	 109
  14	 113
  14	 114
  14	 119
  15	  17
  15	  18
  15	  36
  15	  45
  15	  65
  15	  70
  15	  72
  15	  73
  15	  82
  15	  85
  15	  88
  15	  93
  15	  95
  15	 103
  15	 106
  15	 109
  16	  24
  16	  25
  16	  42
  16	  46
  16	  53
  16	  72
  16	  76
  16	  98
  16	 100
  17	  20
  17	  40
  17	  41
  17	  45
  17	  46
  17	  52
  17	  54
  17	  64
  17	  70
  17	  78
  17	  87
  17	  89
  17	 104
  17	 107
  17	 109
  17	 119
  18	  44
  18	  47
  18	  51
  18	  57
  18	  59
  18	  66
  18	  67
  18	  71
  18	  83
  18	  89
  18	  90
  18	  95
  18	 109
  19	  29
  19	  39
  19	  51
  19	  60
  19	  64
  19	  76
  19	  82
  19	  94
  20	  34
  20	  96
  20	  97
  20	  99
  20	 101
  20	 107
  20	 111
  21	  36
  21	  41
  21	  53
  21	  54
  21	  71
  21	  82
  21	  88
  21	  97
  21	  99
  22	  25
  22	  26
  22	  38
  22	  50
  22	  59
  22	  90
  22	 103
  22	 107
  22	 108
  22	 111
  23	  30
  23	  37
  23	  44
  23	  45
  23	  50
  23	  61
  23	  83
  23	  84
  23	  86
  23	  92
  23	 110
  23	 117
  23	 118
  24	  43
  24	  58
  24	  68
  24	  69
  24	  74
  24	  90
  24	  92
  24	  95
  24	 106
  25	  53
  25	  56
  25	  60
  25	  98
  25	 104
  25	 106
  25	 107
  25	 108
  26	  34
  26	  50
  26	  51
  26	  82
  26	  84
  26	  89
  26	  91
  26	 114
  27	  31
  27	  48
  27	  84
  27	  91
  27	  98
  27	 103
  28	  33
  28	  43
  28	  44
  28	  47
  28	  53
  28	  54
  28	  61
  28	  65
  28	  89
  28	  93
  28	 101
  28	 113
  28	 115
  29	  33
  29	  41
  29	  45
  29	  53
  29	  59
  29	  76
  29	  85
  29	 112
  30	  40
  30	  54
  30	  55
  30	  57
  30	  92
  30	 104
  30	 110
  30	 116
  31	  48
  31	  59
  31	  64
  31	  67
  31	  70
  31	  71
  31	  86
  31	 110
  31	 114
  31	 116
  32	  33
  32	  38
  32	  58
  32	  79
  32	  81
  32	 102
  33	  38
  33	  46
  33	  92
  33	 114
  34	  67
  34	  82
  34	  92
  34	  93
  34	 102
  34	 109
  35	  50
  35	  56
  35	  65
  35	  67
  35	  74
  35	  75
  35	  84
  35	  92
  35	  95
  35	  97
  35	  99
  35	 106
  35	 116
  36	  50
  36	  58
  36	  60
  36	  62
  36	  82
  36	  87
  36	 111
  36	 116
  37	  57
  37	  58
  37	  81
  37	  88
  37	  96
  37	 106
  37	 117
  38	  58
  38	  66
  38	  83
  38	  86
  38	  91
  38	  93
  38	  97
  38	 105
  38	 112
  38	 115
  38	 116
  39	  48
  39	  64
  39	  70
  39	  80
  39	  88
  39	  98
  39	 109
  39	 113
  39	 117
  40	  43
  40	  46
  40	  50
  40	  62
  40	  74
  40	 117
  41	  42
  41	  48
  41	  51
  41	  52
  41	  56
  41	  59
  41	  60
  41	  82
  41	  95
  42	  44
  42	  64
  42	  67
  42	  71
  42	  88
  42	 103
  42	 108
  42	 116
  42	 118
  42	 119
  43	  67
  43	  93
  43	 101
  43	 106
  43	 110
  44	  55
  44	  60
  44	  67
  44	  77
  44	  93
  44	  96
  44	  99
  44	 100
  44	 101
  45	  59
  45	  71
  45	  76
  45	  87
  45	  93
  45	 119
  46	  52
  46	  54
  46	  60
  46	  77
  46	  88
  46	 101
  46	 106
  46	 108
  46	 111
  46	 116
  47	  50
  47	  54
  47	  85
  47	  88
  47	  91
  47	  94
  47	 105
  47	 114
  48	  59
  48	  62
  48	  67
  48	  69
  48	  77
  48	  82
  48	  97
  48	 101
  48	 102
  49	  56
  49	  64
  49	  89
  49	  92
  49	 101
  49	 103
  49	 113
  50	  54
  50	  58
  50	  61
  50	  64
  50	  72
  50	  73
  50	  74
  50	  78
  50	  85
  50	  94
  50	  97
  50	  99
  50	 100
  50	 103
  50	 111
  50	 117
  51	  71
  51	  78
  51	  84
  51	  86
  51	  98
  51	  99
  52	  55
  52	  74
  52	  99
  52	 107
  53	  58
  53	  60
  53	  64
  53	  65
  53	  70
  53	  96
  53	 109
  54	  59
  54	  77
  54	  83
  54	  84
  54	  98
  54	 101
  54	 112
  54	 113
  55	  63
  55	  70
  55	  80
  55	  85
  55	  99
  55	 101
  55	 119
  56	  61
  56	  63
  56	  66
  56	  73
  56	  78
  56	  91
  56	 116
  57	  63
  57	  79
  57	  84
  57	  90
  57	 112
  58	  66
  58	 106
  58	 108
  58	 118
  59	  73
  59	  74
  59	  79
  59	  94
  59	  98
  59	 103
  59	 111
  59	 112
  60	  71
  60	  73
  60	  76
  60	  80
  60	  90
  60	  93
  60	 110
  60	 112
  60	 115
  61	  97
  61	 118
  62	  66
  62	  75
  62	  83
  62	  85
  62	  91
  62	  97
  62	 101
  62	 102
  62	 103
  63	  74
  63	  76
  63	  84
  64	  72
  64	  95
  64	 106
  65	  74
  65	  83
  65	  86
  65	  88
  65	 101
  65	 110
  65	 113
  65	 116
  66	  88
  67	  78
  67	  89
  67	 113
  68	  96
  68	 105
  68	 110
  68	 112
  69	  92
  69	  97
  69	 104
  69	 106
  69	 118
  69	 119
  70	  79
  70	  81
  70	  82
  70	  86
  70	  99
  71	  84
  71	  92
  71	  93
  71	  95
  71	 113
  72	  78
  72	  93
  72	  98
  72	 100
  72	 111
  73	  82
  73	  92
  73	  94
  73	  96
  73	  98
  73	 105
  73	 106
  73	 107
  73	 112
  74	  79
  74	  83
  74	  88
  74	  90
  74	 103
  74	 104
  74	 106
  74	 107
  74	 111
  75	  82
  75	  97
  75	 115
  76	  94
  76	 108
  76	 117
  76	 118
  76	 119
  77	  83
  77	  85
  77	  87
  77	  89
  77	  94
  77	  99
  78	  84
  78	 105
  79	 104
  79	 106
  79	 116
  79	 118
  80	  81
  80	  88
  80	  94
  80	 106
  80	 114
  81	 103
  82	  87
  82	  98
  82	 106
  82	 111
  82	 119
  83	  90
  83	  97
  83	  99
  83	 111
  83	 117
  84	  85
  84	  91
  84	  92
  84	 100
  85	  93
  85	 107
  86	 104
  87	  90
  87	  98
  87	  99
  87	 113
  88	 103
  88	 106
  88	 107
  88	 115
  89	 100
  89	 108
  90	  98
  90	 111
  91	  94
  91	 100
  92	  94
  92	 103
  92	 105
  92	 106
  92	 109
  93	 101
  93	 105
  93	 108
  94	  97
  94	 117
  96	 106
  96	 112
  97	 106
  98	 116
  98	 117
  98	 119
  99	 102
 100	 105
 100	 117
 103	 111
 104	 112
 106	 119
 107	 113
 107	 119
 109	 117
 110	 116
 111	 113
 111	 116
 112	 115
 113	 118
 117	 119
;
